
 param N:= 15;
 param M:= 15;

 param B_c := 22;

 param B_CPU := 37;

 param B_m := 11;

 param: w cpu m:= 
1 	 7	 8 	 1
2 	 4	 4 	 1
3 	 3	 7 	 3
4 	 7	 1 	 2
5 	 5	 2 	 2
6 	 6	 7 	 3
7 	 2	 6 	 1
8 	 2	 4 	 1
9 	 6	 9 	 3
10 	 4	 8 	 1
11 	 4	 7 	 2
12 	 3	 7 	 4
13 	 6	 4 	 1
14 	 1	 9 	 2
15 	 4	 9 	 1
;